networks/zoo_86_362/zoo_86_362.txt
Number of groups: 42
Flow 2: {1 5} {5 6} {6 49} 
Flow 6: {8 7} {7 14} {14 15} {15 58} 
Flow 9: {33 26} {26 69} 
Flow 12: {31 74} 
Flow 15: {3 35} {35 34} Flow 29: {25 31} {31 32} {32 75} 
Flow 45: {37 80} 
Flow 46: {4 3} {3 35} {35 34} {34 40} 
Flow 46: {40 39} {39 38} {38 81} 
Flow 54: {38 11} {11 54} 
Flow 55: {38 12} {12 55} 
Flow 59: {39 37} {37 19} {19 62} 
Flow 60: {15 16} {16 39} {39 23} {23 66} 
Flow 61: {24 67} 
Flow 64: {26 27} {27 70} 
Flow 69: {30 28} {28 32} {32 33} {33 76} 
Flow 74: {2 13} {13 43} {43 42} {42 41} {41 84} 
Flow 78: {5 1} {1 4} {4 47} 
Flow 89: {17 18} {18 61} 
Flow 91: {39 22} {22 65} 
Flow 102: {40 34} {34 77} 
Flow 126: {9 6} {6 8} {8 51} 
Flow 137: {12 38} {38 39} 
Flow 164: {16 15} {15 14} {14 7} {7 50} 
Flow 177: {8 7} {7 50} 
Flow 180: {18 17} 
Flow 181: {19 37} {37 39} {39 82} 
Flow 182: {22 39} 
Flow 183: {23 39} 
Flow 204: {29 9} {9 52} 
Flow 208: {32 28} {28 30} {30 29} {29 72} 
Flow 216: {27 26} {26 33} {33 32} {32 31} {31 25} 
Flow 219: {25 24} {24 7} {7 2} {2 45} 
Flow 262: {13 2} {34 40} {40 43} Flow 266: {34 40} Flow 277: {7 50} 
Flow 277: {43 13} {13 2} Flow 281: {35 34} {34 40} {40 43} {43 13} {13 2} {2 7} {7 24} {24 25} {25 68} 
Flow 289: {36 17} {17 1} {1 44} 
Flow 295: {34 35} {35 3} {3 46} 
Flow 301: {39 16} {16 59} 
Flow 318: {7 8} {8 6} {6 5} {5 48} 
Flow 325: {43 13} {13 56} 
Flow 338: {6 9} {9 29} {29 30} {30 73} 
Flow 345: {39 40} {40 83} 
Flow 347: {40 43} {43 86} 
Flow 348: {41 42} {42 43} {43 40} 
Flow 355: {3 4} {4 1} {1 17} {17 60} 
Time taken running everything: 7 seconds
