networks/zoo_86_362/zoo_86_362.sol
<?xml version = "1.0" encoding="UTF-8" standalone="yes"?>
<CPLEXSolution version="1.2">
 <header
   problemName="networks/zoo_86_362/zoo_86_362.lp"
   solutionName="incumbent"
   solutionIndex="-1"
   objectiveValue="42"
   solutionTypeValue="3"
   solutionTypeString="primal"
   solutionStatusValue="101"
   solutionStatusString="integer optimal solution"
   solutionMethodString="mip"
   primalFeasible="1"
   dualFeasible="1"
   MIPNodes="0"
   MIPIterations="6887"
   writeLevel="3"/>
 <quality
   epInt="1.0000000000000001e-05"
   epRHS="9.9999999999999995e-07"
   maxIntInfeas="0"
   maxPrimalInfeas="8.8817841970012523e-16"
   maxX="4"
   maxSlack="10"/>
 <variables>
  <variable name="Y(4,8)" index="232" value="1"/>
  <variable name="Y(9,26)" index="622" value="1"/>
  <variable name="Y(12,31)" index="852" value="1"/>
  <variable name="Y(49,2)" index="3601" value="1"/>
  <variable name="Y(54,11)" index="3984" value="1"/>
  <variable name="Y(55,12)" index="4060" value="1"/>
  <variable name="Y(59,19)" index="4367" value="1"/>
  <variable name="Y(60,23)" index="4444" value="1"/>
  <variable name="Y(64,27)" index="4748" value="1"/>
  <variable name="Y(74,41)" index="5512" value="1"/>
  <variable name="Y(78,4)" index="5778" value="1"/>
  <variable name="Y(89,18)" index="6616" value="1"/>
  <variable name="Y(91,22)" index="6768" value="1"/>
  <variable name="Y(102,34)" index="7605" value="1"/>
  <variable name="Y(103,37)" index="7683" value="1"/>
  <variable name="Y(137,38)" index="10234" value="1"/>
  <variable name="Y(141,30)" index="10526" value="1"/>
  <variable name="Y(164,7)" index="12231" value="1"/>
  <variable name="Y(180,18)" index="13441" value="1"/>
  <variable name="Y(181,39)" index="13535" value="1"/>
  <variable name="Y(182,22)" index="13593" value="1"/>
  <variable name="Y(183,23)" index="13669" value="1"/>
  <variable name="Y(201,6)" index="15005" value="1"/>
  <variable name="Y(208,29)" index="15550" value="1"/>
  <variable name="Y(216,31)" index="16152" value="1"/>
  <variable name="Y(226,15)" index="16888" value="1"/>
  <variable name="Y(229,24)" index="17120" value="1"/>
  <variable name="Y(239,40)" index="17886" value="1"/>
  <variable name="Y(260,3)" index="19427" value="1"/>
  <variable name="Y(264,9)" index="19733" value="1"/>
  <variable name="Y(270,32)" index="20203" value="1"/>
  <variable name="Y(281,25)" index="21021" value="1"/>
  <variable name="Y(287,38)" index="21484" value="1"/>
  <variable name="Y(289,1)" index="21600" value="1"/>
  <variable name="Y(291,40)" index="21786" value="1"/>
  <variable name="Y(318,5)" index="23779" value="1"/>
  <variable name="Y(325,13)" index="24311" value="1"/>
  <variable name="Y(327,16)" index="24464" value="1"/>
  <variable name="Y(341,33)" index="25529" value="1"/>
  <variable name="Y(347,43)" index="25989" value="1"/>
  <variable name="Y(348,43)" index="26064" value="1"/>
  <variable name="Y(355,17)" index="26565" value="1"/>
  <variable name="X(1,4,78)" index="27227" value="1"/>
  <variable name="X(1,5,264)" index="27775" value="1"/>
  <variable name="X(1,17,355)" index="28228" value="1"/>
  <variable name="X(1,44,289)" index="28524" value="1"/>
  <variable name="X(2,7,281)" index="28878" value="1"/>
  <variable name="X(2,13,74)" index="29033" value="1"/>
  <variable name="X(2,45,49)" index="29370" value="1"/>
  <variable name="X(3,4,355)" index="30038" value="1"/>
  <variable name="X(3,35,291)" index="30336" value="1"/>
  <variable name="X(3,46,260)" index="30667" value="1"/>
  <variable name="X(4,1,355)" index="31124" value="1"/>
  <variable name="X(4,3,291)" index="31422" value="1"/>
  <variable name="X(4,47,78)" index="31571" value="1"/>
  <variable name="X(5,1,78)" index="31933" value="1"/>
  <variable name="X(5,6,264)" index="32481" value="1"/>
  <variable name="X(5,48,318)" index="32897" value="1"/>
  <variable name="X(6,5,318)" index="33259" value="1"/>
  <variable name="X(6,8,4)" index="33307" value="1"/>
  <variable name="X(6,9,264)" index="33929" value="1"/>
  <variable name="X(6,49,201)" index="34228" value="1"/>
  <variable name="X(7,2,49)" index="34438" value="1"/>
  <variable name="X(7,8,318)" index="35069" value="1"/>
  <variable name="X(7,14,226)" index="35339" value="1"/>
  <variable name="X(7,24,281)" index="35756" value="1"/>
  <variable name="X(7,50,164)" index="36001" value="1"/>
  <variable name="X(8,6,318)" index="36517" value="1"/>
  <variable name="X(8,7,49)" index="36610" value="1"/>
  <variable name="X(8,51,4)" index="36927" value="1"/>
  <variable name="X(9,6,201)" index="37486" value="1"/>
  <variable name="X(9,29,141)" index="37788" value="1"/>
  <variable name="X(9,52,264)" index="38273" value="1"/>
  <variable name="X(11,54,54)" index="38425" value="1"/>
  <variable name="X(12,38,137)" index="38870" value="1"/>
  <variable name="X(12,55,55)" index="39150" value="1"/>
  <variable name="X(13,2,281)" index="39738" value="1"/>
  <variable name="X(13,43,74)" index="39893" value="1"/>
  <variable name="X(13,56,325)" index="40506" value="1"/>
  <variable name="X(14,7,164)" index="40707" value="1"/>
  <variable name="X(14,15,226)" index="41131" value="1"/>
  <variable name="X(15,14,164)" index="41431" value="1"/>
  <variable name="X(15,16,60)" index="41689" value="1"/>
  <variable name="X(15,58,226)" index="42217" value="1"/>
  <variable name="X(16,15,164)" index="42517" value="1"/>
  <variable name="X(16,39,60)" index="42775" value="1"/>
  <variable name="X(16,59,327)" index="43404" value="1"/>
  <variable name="X(17,1,289)" index="43728" value="1"/>
  <variable name="X(17,18,89)" index="43890" value="1"/>
  <variable name="X(17,60,355)" index="44518" value="1"/>
  <variable name="X(18,17,180)" index="44705" value="1"/>
  <variable name="X(18,61,89)" index="44976" value="1"/>
  <variable name="X(19,37,181)" index="45430" value="1"/>
  <variable name="X(19,62,59)" index="45670" value="1"/>
  <variable name="X(22,39,182)" index="46155" value="1"/>
  <variable name="X(22,65,91)" index="46426" value="1"/>
  <variable name="X(23,39,183)" index="46880" value="1"/>
  <variable name="X(23,66,60)" index="47119" value="1"/>
  <variable name="X(24,7,226)" index="47647" value="1"/>
  <variable name="X(24,25,281)" index="48064" value="1"/>
  <variable name="X(24,67,229)" index="48374" value="1"/>
  <variable name="X(25,24,229)" index="48736" value="1"/>
  <variable name="X(25,31,270)" index="49139" value="1"/>
  <variable name="X(25,68,281)" index="49512" value="1"/>
  <variable name="X(26,27,64)" index="49657" value="1"/>
  <variable name="X(26,33,216)" index="50171" value="1"/>
  <variable name="X(26,69,9)" index="50326" value="1"/>
  <variable name="X(27,26,216)" index="50895" value="1"/>
  <variable name="X(27,70,64)" index="51105" value="1"/>
  <variable name="X(28,30,208)" index="51611" value="1"/>
  <variable name="X(28,32,9)" index="51774" value="1"/>
  <variable name="X(29,9,201)" index="52328" value="1"/>
  <variable name="X(29,30,141)" index="52630" value="1"/>
  <variable name="X(29,72,208)" index="53059" value="1"/>
  <variable name="X(30,28,9)" index="53222" value="1"/>
  <variable name="X(30,29,208)" index="53783" value="1"/>
  <variable name="X(30,73,141)" index="54078" value="1"/>
  <variable name="X(31,25,216)" index="54515" value="1"/>
  <variable name="X(31,32,270)" index="54931" value="1"/>
  <variable name="X(31,74,12)" index="55035" value="1"/>
  <variable name="X(32,28,208)" index="55593" value="1"/>
  <variable name="X(32,31,216)" index="55963" value="1"/>
  <variable name="X(32,33,9)" index="56118" value="1"/>
  <variable name="X(32,75,270)" index="56741" value="1"/>
  <variable name="X(33,26,9)" index="56842" value="1"/>
  <variable name="X(33,32,216)" index="57411" value="1"/>
  <variable name="X(33,76,341)" index="57898" value="1"/>
  <variable name="X(34,35,260)" index="58179" value="1"/>
  <variable name="X(34,40,291)" index="58572" value="1"/>
  <variable name="X(34,77,102)" index="58745" value="1"/>
  <variable name="X(35,3,260)" index="59265" value="1"/>
  <variable name="X(35,34,291)" index="59658" value="1"/>
  <variable name="X(36,17,289)" index="60018" value="1"/>
  <variable name="X(37,19,59)" index="60150" value="1"/>
  <variable name="X(37,39,181)" index="60634" value="1"/>
  <variable name="X(37,80,103)" index="60918" value="1"/>
  <variable name="X(38,11,54)" index="61231" value="1"/>
  <variable name="X(38,12,55)" index="61594" value="1"/>
  <variable name="X(38,39,137)" index="62038" value="1"/>
  <variable name="X(38,81,287)" index="62550" value="1"/>
  <variable name="X(39,16,327)" index="62952" value="1"/>
  <variable name="X(39,22,91)" index="63078" value="1"/>
  <variable name="X(39,23,60)" index="63409" value="1"/>
  <variable name="X(39,37,103)" index="63814" value="1"/>
  <variable name="X(39,38,54)" index="64127" value="1"/>
  <variable name="X(39,40,347)" index="64782" value="1"/>
  <variable name="X(39,82,181)" index="64978" value="1"/>
  <variable name="X(40,34,102)" index="65261" value="1"/>
  <variable name="X(40,39,291)" index="65812" value="1"/>
  <variable name="X(40,43,347)" index="66230" value="1"/>
  <variable name="X(40,83,239)" index="66484" value="1"/>
  <variable name="X(41,42,348)" index="66955" value="1"/>
  <variable name="X(41,84,74)" index="67043" value="1"/>
  <variable name="X(42,41,74)" index="67405" value="1"/>
  <variable name="X(42,43,348)" index="68041" value="1"/>
  <variable name="X(43,13,325)" index="68380" value="1"/>
  <variable name="X(43,40,348)" index="68765" value="1"/>
  <variable name="X(43,42,74)" index="68853" value="1"/>
  <variable name="X(43,86,347)" index="69488" value="1"/>
  <variable name="C(4,8)" index="69518" value="1"/>
  <variable name="C(9,28)" index="69545" value="1"/>
  <variable name="C(9,32)" index="69546" value="2"/>
  <variable name="C(9,33)" index="69547" value="3"/>
  <variable name="C(9,26)" index="69548" value="4"/>
  <variable name="C(49,7)" index="69768" value="1"/>
  <variable name="C(49,2)" index="69769" value="2"/>
  <variable name="C(54,38)" index="69789" value="1"/>
  <variable name="C(54,11)" index="69790" value="2"/>
  <variable name="C(55,12)" index="69799" value="1"/>
  <variable name="C(59,19)" index="69823" value="1"/>
  <variable name="C(60,16)" index="69829" value="1"/>
  <variable name="C(60,39)" index="69830" value="2"/>
  <variable name="C(60,23)" index="69831" value="3"/>
  <variable name="C(64,27)" index="69857" value="1"/>
  <variable name="C(74,13)" index="69918" value="1"/>
  <variable name="C(74,43)" index="69919" value="2"/>
  <variable name="C(74,42)" index="69920" value="3"/>
  <variable name="C(74,41)" index="69921" value="4"/>
  <variable name="C(78,1)" index="69940" value="1"/>
  <variable name="C(78,4)" index="69941" value="2"/>
  <variable name="C(89,18)" index="69991" value="1"/>
  <variable name="C(91,22)" index="70004" value="1"/>
  <variable name="C(102,34)" index="70062" value="1"/>
  <variable name="C(103,37)" index="70068" value="1"/>
  <variable name="C(137,38)" index="70237" value="1"/>
  <variable name="C(141,29)" index="70258" value="1"/>
  <variable name="C(141,30)" index="70259" value="2"/>
  <variable name="C(164,15)" index="70385" value="1"/>
  <variable name="C(164,14)" index="70386" value="2"/>
  <variable name="C(164,7)" index="70387" value="3"/>
  <variable name="C(181,37)" index="70490" value="1"/>
  <variable name="C(181,39)" index="70491" value="2"/>
  <variable name="C(201,9)" index="70600" value="1"/>
  <variable name="C(201,6)" index="70601" value="2"/>
  <variable name="C(208,28)" index="70652" value="1"/>
  <variable name="C(208,30)" index="70653" value="2"/>
  <variable name="C(208,29)" index="70654" value="3"/>
  <variable name="C(216,26)" index="70705" value="1"/>
  <variable name="C(216,33)" index="70706" value="2"/>
  <variable name="C(216,32)" index="70707" value="3"/>
  <variable name="C(216,31)" index="70708" value="4"/>
  <variable name="C(226,7)" index="70782" value="1"/>
  <variable name="C(226,14)" index="70783" value="2"/>
  <variable name="C(226,15)" index="70784" value="3"/>
  <variable name="C(229,24)" index="70803" value="1"/>
  <variable name="C(260,35)" index="71000" value="1"/>
  <variable name="C(260,3)" index="71001" value="1.9999999999999991"/>
  <variable name="C(264,5)" index="71027" value="1"/>
  <variable name="C(264,6)" index="71028" value="2"/>
  <variable name="C(264,9)" index="71029" value="3"/>
  <variable name="C(270,31)" index="71080" value="1"/>
  <variable name="C(270,32)" index="71081" value="2"/>
  <variable name="C(281,2)" index="71136" value="1"/>
  <variable name="C(281,7)" index="71137" value="2"/>
  <variable name="C(281,24)" index="71138" value="3"/>
  <variable name="C(281,25)" index="71139" value="4"/>
  <variable name="C(289,17)" index="71193" value="1"/>
  <variable name="C(289,1)" index="71194" value="2"/>
  <variable name="C(291,3)" index="71206" value="1"/>
  <variable name="C(291,35)" index="71207" value="2"/>
  <variable name="C(291,34)" index="71208" value="3"/>
  <variable name="C(291,40)" index="71209" value="4"/>
  <variable name="C(318,8)" index="71396" value="1"/>
  <variable name="C(318,6)" index="71397" value="2"/>
  <variable name="C(318,5)" index="71398" value="3"/>
  <variable name="C(325,13)" index="71434" value="1"/>
  <variable name="C(327,16)" index="71439" value="1"/>
  <variable name="C(347,40)" index="71561" value="1"/>
  <variable name="C(347,43)" index="71562" value="2"/>
  <variable name="C(348,42)" index="71564" value="1"/>
  <variable name="C(348,43)" index="71565" value="2"/>
  <variable name="C(355,4)" index="71614" value="1"/>
  <variable name="C(355,1)" index="71615" value="2"/>
  <variable name="C(355,17)" index="71616" value="3"/>
 </variables>
</CPLEXSolution>
